* #variable= 1308 #constraint= 1218 
+1 x67 = 1 ;
+1 x68 = 0 ;
+1 x69 = 0 ;
+1 x70 = 0 ;
+1 x71 = 0 ;
+1 x72 = 0 ;
+1 x73 = 0 ;
+1 x74 = 0 ;
+1 x75 = 0 ;
+1 x76 = 0 ;
+1 x77 = 0 ;
+1 x78 = 0 ;
+1 x79 = 0 ;
+2 x94 +1 x80 -1 x54 -1 x67 = 0 ;
+2 x95 +1 x81 -1 x55 -1 x94 -1 x68 = 0 ;
+2 x96 +1 x82 -1 x56 -1 x95 -1 x69 = 0 ;
+2 x97 +1 x83 -1 x57 -1 x96 -1 x70 = 0 ;
+2 x98 +1 x84 -1 x58 -1 x97 -1 x71 = 0 ;
+2 x99 +1 x85 -1 x59 -1 x98 -1 x72 = 0 ;
+2 x100 +1 x86 -1 x60 -1 x99 -1 x73 = 0 ;
+2 x101 +1 x87 -1 x61 -1 x100 -1 x74 = 0 ;
+2 x102 +1 x88 -1 x62 -1 x101 -1 x75 = 0 ;
+2 x103 +1 x89 -1 x63 -1 x102 -1 x76 = 0 ;
+2 x104 +1 x90 -1 x64 -1 x103 -1 x77 = 0 ;
+2 x105 +1 x91 -1 x65 -1 x104 -1 x78 = 0 ;
+2 x106 +1 x92 -1 x66 -1 x105 -1 x79 = 0 ;
+1 x106 -1 x93 = 0 ;
+2 x107 +1 x1282 -1 x1256 -1 x1 = 0 ;
+2 x108 +1 x1283 -1 x1257 -1 x107 -1 x2 = 0 ;
+2 x109 +1 x1284 -1 x1258 -1 x108 -1 x3 = 0 ;
+2 x110 +1 x1285 -1 x1259 -1 x109 -1 x4 = 0 ;
+2 x111 +1 x1286 -1 x1260 -1 x110 -1 x5 = 0 ;
+2 x112 +1 x1287 -1 x1261 -1 x111 -1 x6 = 0 ;
+2 x113 +1 x1288 -1 x1262 -1 x112 -1 x7 = 0 ;
+2 x114 +1 x1289 -1 x1263 -1 x113 -1 x8 = 0 ;
+2 x115 +1 x1290 -1 x1264 -1 x114 -1 x9 = 0 ;
+2 x116 +1 x1291 -1 x1265 -1 x115 -1 x10 = 0 ;
+2 x117 +1 x1292 -1 x1266 -1 x116 -1 x11 = 0 ;
+2 x118 +1 x1293 -1 x1267 -1 x117 -1 x12 = 0 ;
+2 x119 +1 x1294 -1 x1268 -1 x118 -1 x13 = 0 ;
+2 x120 +1 x1295 -1 x1269 -1 x119 -1 x14 = 0 ;
+2 x121 +1 x1296 -1 x1270 -1 x120 -1 x15 = 0 ;
+2 x122 +1 x1297 -1 x1271 -1 x121 -1 x16 = 0 ;
+2 x123 +1 x1298 -1 x1272 -1 x122 -1 x17 = 0 ;
+2 x124 +1 x1299 -1 x1273 -1 x123 -1 x18 = 0 ;
+2 x125 +1 x1300 -1 x1274 -1 x124 -1 x19 = 0 ;
+2 x126 +1 x1301 -1 x1275 -1 x125 -1 x20 = 0 ;
+2 x127 +1 x1302 -1 x1276 -1 x126 -1 x21 = 0 ;
+2 x128 +1 x1303 -1 x1277 -1 x127 -1 x22 = 0 ;
+2 x129 +1 x1304 -1 x1278 -1 x128 -1 x23 = 0 ;
+2 x130 +1 x1305 -1 x1279 -1 x129 -1 x24 = 0 ;
+2 x131 +1 x1306 -1 x1280 -1 x130 -1 x25 = 0 ;
+2 x132 +1 x1307 -1 x1281 -1 x131 -1 x26 = 0 ;
+1 x132 -1 x1308 = 0 ;
+1 x14 = 0 ;
+1 x15 = 0 ;
+1 x16 = 0 ;
+1 x17 = 0 ;
+1 x18 = 0 ;
+1 x19 = 0 ;
+1 x20 = 0 ;
+1 x21 = 0 ;
+1 x22 = 0 ;
+1 x23 = 0 ;
+1 x24 = 0 ;
+1 x25 = 0 ;
+1 x26 = 0 ;
+1 x53 = 0 ;
+1 x40 -1 x1 >= 0 ;
+1 x40 -1 x27 >= 0 ;
-1 x40 +1 x1 +1 x27 >= 0 ;
+1 x27 = 0 ;
+1 x41 -1 x2 >= 0 ;
+1 x41 -1 x28 >= 0 ;
-1 x41 +1 x2 +1 x28 >= 0 ;
+1 x28 = 1 ;
+1 x42 -1 x3 >= 0 ;
+1 x42 -1 x29 >= 0 ;
-1 x42 +1 x3 +1 x29 >= 0 ;
+1 x29 = 0 ;
+1 x43 -1 x4 >= 0 ;
+1 x43 -1 x30 >= 0 ;
-1 x43 +1 x4 +1 x30 >= 0 ;
+1 x30 = 1 ;
+1 x44 -1 x5 >= 0 ;
+1 x44 -1 x31 >= 0 ;
-1 x44 +1 x5 +1 x31 >= 0 ;
+1 x31 = 0 ;
+1 x45 -1 x6 >= 0 ;
+1 x45 -1 x32 >= 0 ;
-1 x45 +1 x6 +1 x32 >= 0 ;
+1 x32 = 1 ;
+1 x46 -1 x7 >= 0 ;
+1 x46 -1 x33 >= 0 ;
-1 x46 +1 x7 +1 x33 >= 0 ;
+1 x33 = 0 ;
+1 x47 -1 x8 >= 0 ;
+1 x47 -1 x34 >= 0 ;
-1 x47 +1 x8 +1 x34 >= 0 ;
+1 x34 = 1 ;
+1 x48 -1 x9 >= 0 ;
+1 x48 -1 x35 >= 0 ;
-1 x48 +1 x9 +1 x35 >= 0 ;
+1 x35 = 0 ;
+1 x49 -1 x10 >= 0 ;
+1 x49 -1 x36 >= 0 ;
-1 x49 +1 x10 +1 x36 >= 0 ;
+1 x36 = 1 ;
+1 x50 -1 x11 >= 0 ;
+1 x50 -1 x37 >= 0 ;
-1 x50 +1 x11 +1 x37 >= 0 ;
+1 x37 = 0 ;
+1 x51 -1 x12 >= 0 ;
+1 x51 -1 x38 >= 0 ;
-1 x51 +1 x12 +1 x38 >= 0 ;
+1 x38 = 1 ;
+1 x52 -1 x13 >= 0 ;
+1 x52 -1 x39 >= 0 ;
-1 x52 +1 x13 +1 x39 >= 0 ;
+1 x39 = 0 ;
-1 x133 +1 x40 >= 0 ;
-1 x133 +1 x80 >= 0 ;
+1 x133 -1 x40 -1 x80 >= -1 ;
+1 x133 +2 x147 +4 x161 +8 x175 +16 x189 +32 x203 +64 x217 +128 x231 +256 x245 +512 x259 +1024 x273 +2048 x287 +4096 x301 +8192 x315 +2 x134 +4 x148 +8 x162 +16 x176 +32 x190 +64 x204 +128 x218 +256 x232 +512 x246 +1024 x260 +2048 x274 +4096 x288 +8192 x302 +16384 x316 +4 x135 +8 x149 +16 x163 +32 x177 +64 x191 +128 x205 +256 x219 +512 x233 +1024 x247 +2048 x261 +4096 x275 +8192 x289 +16384 x303 +32768 x317 +8 x136 +16 x150 +32 x164 +64 x178 +128 x192 +256 x206 +512 x220 +1024 x234 +2048 x248 +4096 x262 +8192 x276 +16384 x290 +32768 x304 +65536 x318 +16 x137 +32 x151 +64 x165 +128 x179 +256 x193 +512 x207 +1024 x221 +2048 x235 +4096 x249 +8192 x263 +16384 x277 +32768 x291 +65536 x305 +131072 x319 +32 x138 +64 x152 +128 x166 +256 x180 +512 x194 +1024 x208 +2048 x222 +4096 x236 +8192 x250 +16384 x264 +32768 x278 +65536 x292 +131072 x306 +262144 x320 +64 x139 +128 x153 +256 x167 +512 x181 +1024 x195 +2048 x209 +4096 x223 +8192 x237 +16384 x251 +32768 x265 +65536 x279 +131072 x293 +262144 x307 +524288 x321 +128 x140 +256 x154 +512 x168 +1024 x182 +2048 x196 +4096 x210 +8192 x224 +16384 x238 +32768 x252 +65536 x266 +131072 x280 +262144 x294 +524288 x308 +1048576 x322 +256 x141 +512 x155 +1024 x169 +2048 x183 +4096 x197 +8192 x211 +16384 x225 +32768 x239 +65536 x253 +131072 x267 +262144 x281 +524288 x295 +1048576 x309 +2097152 x323 +512 x142 +1024 x156 +2048 x170 +4096 x184 +8192 x198 +16384 x212 +32768 x226 +65536 x240 +131072 x254 +262144 x268 +524288 x282 +1048576 x296 +2097152 x310 +4194304 x324 +1024 x143 +2048 x157 +4096 x171 +8192 x185 +16384 x199 +32768 x213 +65536 x227 +131072 x241 +262144 x255 +524288 x269 +1048576 x283 +2097152 x297 +4194304 x311 +8388608 x325 +2048 x144 +4096 x158 +8192 x172 +16384 x186 +32768 x200 +65536 x214 +131072 x228 +262144 x242 +524288 x256 +1048576 x270 +2097152 x284 +4194304 x298 +8388608 x312 +16777216 x326 +4096 x145 +8192 x159 +16384 x173 +32768 x187 +65536 x201 +131072 x215 +262144 x229 +524288 x243 +1048576 x257 +2097152 x271 +4194304 x285 +8388608 x299 +16777216 x313 +33554432 x327 +8192 x146 +16384 x160 +32768 x174 +65536 x188 +131072 x202 +262144 x216 +524288 x230 +1048576 x244 +2097152 x258 +4194304 x272 +8388608 x286 +16777216 x300 +33554432 x314 +67108864 x328 -1 x721 -2 x722 -4 x723 -8 x724 -16 x725 -32 x726 -64 x727 -128 x728 -256 x729 -512 x730 -1024 x731 -2048 x732 -4096 x733 -8192 x734 -16384 x735 -32768 x736 -65536 x737 -131072 x738 -262144 x739 -524288 x740 -1048576 x741 -2097152 x742 -4194304 x743 -8388608 x744 -16777216 x745 -33554432 x746 -67108864 x747 -134217728 x748 = 0; 
-1 x749 +1 x27 >= 0 ;
-1 x749 +1 x54 >= 0 ;
+1 x749 -1 x27 -1 x54 >= -1 ;
+1 x749 +2 x762 +4 x775 +8 x788 +16 x801 +32 x814 +64 x827 +128 x840 +256 x853 +512 x866 +1024 x879 +2048 x892 +4096 x905 +2 x750 +4 x763 +8 x776 +16 x789 +32 x802 +64 x815 +128 x828 +256 x841 +512 x854 +1024 x867 +2048 x880 +4096 x893 +8192 x906 +4 x751 +8 x764 +16 x777 +32 x790 +64 x803 +128 x816 +256 x829 +512 x842 +1024 x855 +2048 x868 +4096 x881 +8192 x894 +16384 x907 +8 x752 +16 x765 +32 x778 +64 x791 +128 x804 +256 x817 +512 x830 +1024 x843 +2048 x856 +4096 x869 +8192 x882 +16384 x895 +32768 x908 +16 x753 +32 x766 +64 x779 +128 x792 +256 x805 +512 x818 +1024 x831 +2048 x844 +4096 x857 +8192 x870 +16384 x883 +32768 x896 +65536 x909 +32 x754 +64 x767 +128 x780 +256 x793 +512 x806 +1024 x819 +2048 x832 +4096 x845 +8192 x858 +16384 x871 +32768 x884 +65536 x897 +131072 x910 +64 x755 +128 x768 +256 x781 +512 x794 +1024 x807 +2048 x820 +4096 x833 +8192 x846 +16384 x859 +32768 x872 +65536 x885 +131072 x898 +262144 x911 +128 x756 +256 x769 +512 x782 +1024 x795 +2048 x808 +4096 x821 +8192 x834 +16384 x847 +32768 x860 +65536 x873 +131072 x886 +262144 x899 +524288 x912 +256 x757 +512 x770 +1024 x783 +2048 x796 +4096 x809 +8192 x822 +16384 x835 +32768 x848 +65536 x861 +131072 x874 +262144 x887 +524288 x900 +1048576 x913 +512 x758 +1024 x771 +2048 x784 +4096 x797 +8192 x810 +16384 x823 +32768 x836 +65536 x849 +131072 x862 +262144 x875 +524288 x888 +1048576 x901 +2097152 x914 +1024 x759 +2048 x772 +4096 x785 +8192 x798 +16384 x811 +32768 x824 +65536 x837 +131072 x850 +262144 x863 +524288 x876 +1048576 x889 +2097152 x902 +4194304 x915 +2048 x760 +4096 x773 +8192 x786 +16384 x799 +32768 x812 +65536 x825 +131072 x838 +262144 x851 +524288 x864 +1048576 x877 +2097152 x890 +4194304 x903 +8388608 x916 +4096 x761 +8192 x774 +16384 x787 +32768 x800 +65536 x813 +131072 x826 +262144 x839 +524288 x852 +1048576 x865 +2097152 x878 +4194304 x891 +8388608 x904 +16777216 x917 -1 x1256 -2 x1257 -4 x1258 -8 x1259 -16 x1260 -32 x1261 -64 x1262 -128 x1263 -256 x1264 -512 x1265 -1024 x1266 -2048 x1267 -4096 x1268 -8192 x1269 -16384 x1270 -32768 x1271 -65536 x1272 -131072 x1273 -262144 x1274 -524288 x1275 -1048576 x1276 -2097152 x1277 -4194304 x1278 -8388608 x1279 -16777216 x1280 -33554432 x1281 = 0; 
+1 x1282 -1 x721 +2 x1283 -2 x722 +4 x1284 -4 x723 +8 x1285 -8 x724 +16 x1286 -16 x725 +32 x1287 -32 x726 +64 x1288 -64 x727 +128 x1289 -128 x728 +256 x1290 -256 x729 +512 x1291 -512 x730 +1024 x1292 -1024 x731 +2048 x1293 -2048 x732 +4096 x1294 -4096 x733 +8192 x1295 -8192 x734 +16384 x1296 -16384 x735 +32768 x1297 -32768 x736 +65536 x1298 -65536 x737 +131072 x1299 -131072 x738 +262144 x1300 -262144 x739 +524288 x1301 -524288 x740 +1048576 x1302 -1048576 x741 +2097152 x1303 -2097152 x742 +4194304 x1304 -4194304 x743 +8388608 x1305 -8388608 x744 +16777216 x1306 -16777216 x745 +33554432 x1307 -33554432 x746 +67108864 x1308 -67108864 x747 >= 1 ;
-1 x147 +1 x41 >= 0 ;
-1 x147 +1 x80 >= 0 ;
+1 x147 -1 x41 -1 x80 >= -1 ;
-1 x134 +1 x40 >= 0 ;
-1 x134 +1 x81 >= 0 ;
+1 x134 -1 x40 -1 x81 >= -1 ;
-1 x762 +1 x28 >= 0 ;
-1 x762 +1 x54 >= 0 ;
+1 x762 -1 x28 -1 x54 >= -1 ;
-1 x750 +1 x27 >= 0 ;
-1 x750 +1 x55 >= 0 ;
+1 x750 -1 x27 -1 x55 >= -1 ;
-1 x161 +1 x42 >= 0 ;
-1 x161 +1 x80 >= 0 ;
+1 x161 -1 x42 -1 x80 >= -1 ;
-1 x148 +1 x41 >= 0 ;
-1 x148 +1 x81 >= 0 ;
+1 x148 -1 x41 -1 x81 >= -1 ;
-1 x135 +1 x40 >= 0 ;
-1 x135 +1 x82 >= 0 ;
+1 x135 -1 x40 -1 x82 >= -1 ;
-1 x775 +1 x29 >= 0 ;
-1 x775 +1 x54 >= 0 ;
+1 x775 -1 x29 -1 x54 >= -1 ;
-1 x763 +1 x28 >= 0 ;
-1 x763 +1 x55 >= 0 ;
+1 x763 -1 x28 -1 x55 >= -1 ;
-1 x751 +1 x27 >= 0 ;
-1 x751 +1 x56 >= 0 ;
+1 x751 -1 x27 -1 x56 >= -1 ;
-1 x175 +1 x43 >= 0 ;
-1 x175 +1 x80 >= 0 ;
+1 x175 -1 x43 -1 x80 >= -1 ;
-1 x162 +1 x42 >= 0 ;
-1 x162 +1 x81 >= 0 ;
+1 x162 -1 x42 -1 x81 >= -1 ;
-1 x149 +1 x41 >= 0 ;
-1 x149 +1 x82 >= 0 ;
+1 x149 -1 x41 -1 x82 >= -1 ;
-1 x136 +1 x40 >= 0 ;
-1 x136 +1 x83 >= 0 ;
+1 x136 -1 x40 -1 x83 >= -1 ;
-1 x788 +1 x30 >= 0 ;
-1 x788 +1 x54 >= 0 ;
+1 x788 -1 x30 -1 x54 >= -1 ;
-1 x776 +1 x29 >= 0 ;
-1 x776 +1 x55 >= 0 ;
+1 x776 -1 x29 -1 x55 >= -1 ;
-1 x764 +1 x28 >= 0 ;
-1 x764 +1 x56 >= 0 ;
+1 x764 -1 x28 -1 x56 >= -1 ;
-1 x752 +1 x27 >= 0 ;
-1 x752 +1 x57 >= 0 ;
+1 x752 -1 x27 -1 x57 >= -1 ;
-1 x189 +1 x44 >= 0 ;
-1 x189 +1 x80 >= 0 ;
+1 x189 -1 x44 -1 x80 >= -1 ;
-1 x176 +1 x43 >= 0 ;
-1 x176 +1 x81 >= 0 ;
+1 x176 -1 x43 -1 x81 >= -1 ;
-1 x163 +1 x42 >= 0 ;
-1 x163 +1 x82 >= 0 ;
+1 x163 -1 x42 -1 x82 >= -1 ;
-1 x150 +1 x41 >= 0 ;
-1 x150 +1 x83 >= 0 ;
+1 x150 -1 x41 -1 x83 >= -1 ;
-1 x137 +1 x40 >= 0 ;
-1 x137 +1 x84 >= 0 ;
+1 x137 -1 x40 -1 x84 >= -1 ;
-1 x801 +1 x31 >= 0 ;
-1 x801 +1 x54 >= 0 ;
+1 x801 -1 x31 -1 x54 >= -1 ;
-1 x789 +1 x30 >= 0 ;
-1 x789 +1 x55 >= 0 ;
+1 x789 -1 x30 -1 x55 >= -1 ;
-1 x777 +1 x29 >= 0 ;
-1 x777 +1 x56 >= 0 ;
+1 x777 -1 x29 -1 x56 >= -1 ;
-1 x765 +1 x28 >= 0 ;
-1 x765 +1 x57 >= 0 ;
+1 x765 -1 x28 -1 x57 >= -1 ;
-1 x753 +1 x27 >= 0 ;
-1 x753 +1 x58 >= 0 ;
+1 x753 -1 x27 -1 x58 >= -1 ;
-1 x203 +1 x45 >= 0 ;
-1 x203 +1 x80 >= 0 ;
+1 x203 -1 x45 -1 x80 >= -1 ;
-1 x190 +1 x44 >= 0 ;
-1 x190 +1 x81 >= 0 ;
+1 x190 -1 x44 -1 x81 >= -1 ;
-1 x177 +1 x43 >= 0 ;
-1 x177 +1 x82 >= 0 ;
+1 x177 -1 x43 -1 x82 >= -1 ;
-1 x164 +1 x42 >= 0 ;
-1 x164 +1 x83 >= 0 ;
+1 x164 -1 x42 -1 x83 >= -1 ;
-1 x151 +1 x41 >= 0 ;
-1 x151 +1 x84 >= 0 ;
+1 x151 -1 x41 -1 x84 >= -1 ;
-1 x138 +1 x40 >= 0 ;
-1 x138 +1 x85 >= 0 ;
+1 x138 -1 x40 -1 x85 >= -1 ;
-1 x814 +1 x32 >= 0 ;
-1 x814 +1 x54 >= 0 ;
+1 x814 -1 x32 -1 x54 >= -1 ;
-1 x802 +1 x31 >= 0 ;
-1 x802 +1 x55 >= 0 ;
+1 x802 -1 x31 -1 x55 >= -1 ;
-1 x790 +1 x30 >= 0 ;
-1 x790 +1 x56 >= 0 ;
+1 x790 -1 x30 -1 x56 >= -1 ;
-1 x778 +1 x29 >= 0 ;
-1 x778 +1 x57 >= 0 ;
+1 x778 -1 x29 -1 x57 >= -1 ;
-1 x766 +1 x28 >= 0 ;
-1 x766 +1 x58 >= 0 ;
+1 x766 -1 x28 -1 x58 >= -1 ;
-1 x754 +1 x27 >= 0 ;
-1 x754 +1 x59 >= 0 ;
+1 x754 -1 x27 -1 x59 >= -1 ;
-1 x217 +1 x46 >= 0 ;
-1 x217 +1 x80 >= 0 ;
+1 x217 -1 x46 -1 x80 >= -1 ;
-1 x204 +1 x45 >= 0 ;
-1 x204 +1 x81 >= 0 ;
+1 x204 -1 x45 -1 x81 >= -1 ;
-1 x191 +1 x44 >= 0 ;
-1 x191 +1 x82 >= 0 ;
+1 x191 -1 x44 -1 x82 >= -1 ;
-1 x178 +1 x43 >= 0 ;
-1 x178 +1 x83 >= 0 ;
+1 x178 -1 x43 -1 x83 >= -1 ;
-1 x165 +1 x42 >= 0 ;
-1 x165 +1 x84 >= 0 ;
+1 x165 -1 x42 -1 x84 >= -1 ;
-1 x152 +1 x41 >= 0 ;
-1 x152 +1 x85 >= 0 ;
+1 x152 -1 x41 -1 x85 >= -1 ;
-1 x139 +1 x40 >= 0 ;
-1 x139 +1 x86 >= 0 ;
+1 x139 -1 x40 -1 x86 >= -1 ;
-1 x827 +1 x33 >= 0 ;
-1 x827 +1 x54 >= 0 ;
+1 x827 -1 x33 -1 x54 >= -1 ;
-1 x815 +1 x32 >= 0 ;
-1 x815 +1 x55 >= 0 ;
+1 x815 -1 x32 -1 x55 >= -1 ;
-1 x803 +1 x31 >= 0 ;
-1 x803 +1 x56 >= 0 ;
+1 x803 -1 x31 -1 x56 >= -1 ;
-1 x791 +1 x30 >= 0 ;
-1 x791 +1 x57 >= 0 ;
+1 x791 -1 x30 -1 x57 >= -1 ;
-1 x779 +1 x29 >= 0 ;
-1 x779 +1 x58 >= 0 ;
+1 x779 -1 x29 -1 x58 >= -1 ;
-1 x767 +1 x28 >= 0 ;
-1 x767 +1 x59 >= 0 ;
+1 x767 -1 x28 -1 x59 >= -1 ;
-1 x755 +1 x27 >= 0 ;
-1 x755 +1 x60 >= 0 ;
+1 x755 -1 x27 -1 x60 >= -1 ;
-1 x231 +1 x47 >= 0 ;
-1 x231 +1 x80 >= 0 ;
+1 x231 -1 x47 -1 x80 >= -1 ;
-1 x218 +1 x46 >= 0 ;
-1 x218 +1 x81 >= 0 ;
+1 x218 -1 x46 -1 x81 >= -1 ;
-1 x205 +1 x45 >= 0 ;
-1 x205 +1 x82 >= 0 ;
+1 x205 -1 x45 -1 x82 >= -1 ;
-1 x192 +1 x44 >= 0 ;
-1 x192 +1 x83 >= 0 ;
+1 x192 -1 x44 -1 x83 >= -1 ;
-1 x179 +1 x43 >= 0 ;
-1 x179 +1 x84 >= 0 ;
+1 x179 -1 x43 -1 x84 >= -1 ;
-1 x166 +1 x42 >= 0 ;
-1 x166 +1 x85 >= 0 ;
+1 x166 -1 x42 -1 x85 >= -1 ;
-1 x153 +1 x41 >= 0 ;
-1 x153 +1 x86 >= 0 ;
+1 x153 -1 x41 -1 x86 >= -1 ;
-1 x140 +1 x40 >= 0 ;
-1 x140 +1 x87 >= 0 ;
+1 x140 -1 x40 -1 x87 >= -1 ;
-1 x840 +1 x34 >= 0 ;
-1 x840 +1 x54 >= 0 ;
+1 x840 -1 x34 -1 x54 >= -1 ;
-1 x828 +1 x33 >= 0 ;
-1 x828 +1 x55 >= 0 ;
+1 x828 -1 x33 -1 x55 >= -1 ;
-1 x816 +1 x32 >= 0 ;
-1 x816 +1 x56 >= 0 ;
+1 x816 -1 x32 -1 x56 >= -1 ;
-1 x804 +1 x31 >= 0 ;
-1 x804 +1 x57 >= 0 ;
+1 x804 -1 x31 -1 x57 >= -1 ;
-1 x792 +1 x30 >= 0 ;
-1 x792 +1 x58 >= 0 ;
+1 x792 -1 x30 -1 x58 >= -1 ;
-1 x780 +1 x29 >= 0 ;
-1 x780 +1 x59 >= 0 ;
+1 x780 -1 x29 -1 x59 >= -1 ;
-1 x768 +1 x28 >= 0 ;
-1 x768 +1 x60 >= 0 ;
+1 x768 -1 x28 -1 x60 >= -1 ;
-1 x756 +1 x27 >= 0 ;
-1 x756 +1 x61 >= 0 ;
+1 x756 -1 x27 -1 x61 >= -1 ;
-1 x245 +1 x48 >= 0 ;
-1 x245 +1 x80 >= 0 ;
+1 x245 -1 x48 -1 x80 >= -1 ;
-1 x232 +1 x47 >= 0 ;
-1 x232 +1 x81 >= 0 ;
+1 x232 -1 x47 -1 x81 >= -1 ;
-1 x219 +1 x46 >= 0 ;
-1 x219 +1 x82 >= 0 ;
+1 x219 -1 x46 -1 x82 >= -1 ;
-1 x206 +1 x45 >= 0 ;
-1 x206 +1 x83 >= 0 ;
+1 x206 -1 x45 -1 x83 >= -1 ;
-1 x193 +1 x44 >= 0 ;
-1 x193 +1 x84 >= 0 ;
+1 x193 -1 x44 -1 x84 >= -1 ;
-1 x180 +1 x43 >= 0 ;
-1 x180 +1 x85 >= 0 ;
+1 x180 -1 x43 -1 x85 >= -1 ;
-1 x167 +1 x42 >= 0 ;
-1 x167 +1 x86 >= 0 ;
+1 x167 -1 x42 -1 x86 >= -1 ;
-1 x154 +1 x41 >= 0 ;
-1 x154 +1 x87 >= 0 ;
+1 x154 -1 x41 -1 x87 >= -1 ;
-1 x141 +1 x40 >= 0 ;
-1 x141 +1 x88 >= 0 ;
+1 x141 -1 x40 -1 x88 >= -1 ;
-1 x853 +1 x35 >= 0 ;
-1 x853 +1 x54 >= 0 ;
+1 x853 -1 x35 -1 x54 >= -1 ;
-1 x841 +1 x34 >= 0 ;
-1 x841 +1 x55 >= 0 ;
+1 x841 -1 x34 -1 x55 >= -1 ;
-1 x829 +1 x33 >= 0 ;
-1 x829 +1 x56 >= 0 ;
+1 x829 -1 x33 -1 x56 >= -1 ;
-1 x817 +1 x32 >= 0 ;
-1 x817 +1 x57 >= 0 ;
+1 x817 -1 x32 -1 x57 >= -1 ;
-1 x805 +1 x31 >= 0 ;
-1 x805 +1 x58 >= 0 ;
+1 x805 -1 x31 -1 x58 >= -1 ;
-1 x793 +1 x30 >= 0 ;
-1 x793 +1 x59 >= 0 ;
+1 x793 -1 x30 -1 x59 >= -1 ;
-1 x781 +1 x29 >= 0 ;
-1 x781 +1 x60 >= 0 ;
+1 x781 -1 x29 -1 x60 >= -1 ;
-1 x769 +1 x28 >= 0 ;
-1 x769 +1 x61 >= 0 ;
+1 x769 -1 x28 -1 x61 >= -1 ;
-1 x757 +1 x27 >= 0 ;
-1 x757 +1 x62 >= 0 ;
+1 x757 -1 x27 -1 x62 >= -1 ;
-1 x259 +1 x49 >= 0 ;
-1 x259 +1 x80 >= 0 ;
+1 x259 -1 x49 -1 x80 >= -1 ;
-1 x246 +1 x48 >= 0 ;
-1 x246 +1 x81 >= 0 ;
+1 x246 -1 x48 -1 x81 >= -1 ;
-1 x233 +1 x47 >= 0 ;
-1 x233 +1 x82 >= 0 ;
+1 x233 -1 x47 -1 x82 >= -1 ;
-1 x220 +1 x46 >= 0 ;
-1 x220 +1 x83 >= 0 ;
+1 x220 -1 x46 -1 x83 >= -1 ;
-1 x207 +1 x45 >= 0 ;
-1 x207 +1 x84 >= 0 ;
+1 x207 -1 x45 -1 x84 >= -1 ;
-1 x194 +1 x44 >= 0 ;
-1 x194 +1 x85 >= 0 ;
+1 x194 -1 x44 -1 x85 >= -1 ;
-1 x181 +1 x43 >= 0 ;
-1 x181 +1 x86 >= 0 ;
+1 x181 -1 x43 -1 x86 >= -1 ;
-1 x168 +1 x42 >= 0 ;
-1 x168 +1 x87 >= 0 ;
+1 x168 -1 x42 -1 x87 >= -1 ;
-1 x155 +1 x41 >= 0 ;
-1 x155 +1 x88 >= 0 ;
+1 x155 -1 x41 -1 x88 >= -1 ;
-1 x142 +1 x40 >= 0 ;
-1 x142 +1 x89 >= 0 ;
+1 x142 -1 x40 -1 x89 >= -1 ;
-1 x866 +1 x36 >= 0 ;
-1 x866 +1 x54 >= 0 ;
+1 x866 -1 x36 -1 x54 >= -1 ;
-1 x854 +1 x35 >= 0 ;
-1 x854 +1 x55 >= 0 ;
+1 x854 -1 x35 -1 x55 >= -1 ;
-1 x842 +1 x34 >= 0 ;
-1 x842 +1 x56 >= 0 ;
+1 x842 -1 x34 -1 x56 >= -1 ;
-1 x830 +1 x33 >= 0 ;
-1 x830 +1 x57 >= 0 ;
+1 x830 -1 x33 -1 x57 >= -1 ;
-1 x818 +1 x32 >= 0 ;
-1 x818 +1 x58 >= 0 ;
+1 x818 -1 x32 -1 x58 >= -1 ;
-1 x806 +1 x31 >= 0 ;
-1 x806 +1 x59 >= 0 ;
+1 x806 -1 x31 -1 x59 >= -1 ;
-1 x794 +1 x30 >= 0 ;
-1 x794 +1 x60 >= 0 ;
+1 x794 -1 x30 -1 x60 >= -1 ;
-1 x782 +1 x29 >= 0 ;
-1 x782 +1 x61 >= 0 ;
+1 x782 -1 x29 -1 x61 >= -1 ;
-1 x770 +1 x28 >= 0 ;
-1 x770 +1 x62 >= 0 ;
+1 x770 -1 x28 -1 x62 >= -1 ;
-1 x758 +1 x27 >= 0 ;
-1 x758 +1 x63 >= 0 ;
+1 x758 -1 x27 -1 x63 >= -1 ;
-1 x273 +1 x50 >= 0 ;
-1 x273 +1 x80 >= 0 ;
+1 x273 -1 x50 -1 x80 >= -1 ;
-1 x260 +1 x49 >= 0 ;
-1 x260 +1 x81 >= 0 ;
+1 x260 -1 x49 -1 x81 >= -1 ;
-1 x247 +1 x48 >= 0 ;
-1 x247 +1 x82 >= 0 ;
+1 x247 -1 x48 -1 x82 >= -1 ;
-1 x234 +1 x47 >= 0 ;
-1 x234 +1 x83 >= 0 ;
+1 x234 -1 x47 -1 x83 >= -1 ;
-1 x221 +1 x46 >= 0 ;
-1 x221 +1 x84 >= 0 ;
+1 x221 -1 x46 -1 x84 >= -1 ;
-1 x208 +1 x45 >= 0 ;
-1 x208 +1 x85 >= 0 ;
+1 x208 -1 x45 -1 x85 >= -1 ;
-1 x195 +1 x44 >= 0 ;
-1 x195 +1 x86 >= 0 ;
+1 x195 -1 x44 -1 x86 >= -1 ;
-1 x182 +1 x43 >= 0 ;
-1 x182 +1 x87 >= 0 ;
+1 x182 -1 x43 -1 x87 >= -1 ;
-1 x169 +1 x42 >= 0 ;
-1 x169 +1 x88 >= 0 ;
+1 x169 -1 x42 -1 x88 >= -1 ;
-1 x156 +1 x41 >= 0 ;
-1 x156 +1 x89 >= 0 ;
+1 x156 -1 x41 -1 x89 >= -1 ;
-1 x143 +1 x40 >= 0 ;
-1 x143 +1 x90 >= 0 ;
+1 x143 -1 x40 -1 x90 >= -1 ;
-1 x879 +1 x37 >= 0 ;
-1 x879 +1 x54 >= 0 ;
+1 x879 -1 x37 -1 x54 >= -1 ;
-1 x867 +1 x36 >= 0 ;
-1 x867 +1 x55 >= 0 ;
+1 x867 -1 x36 -1 x55 >= -1 ;
-1 x855 +1 x35 >= 0 ;
-1 x855 +1 x56 >= 0 ;
+1 x855 -1 x35 -1 x56 >= -1 ;
-1 x843 +1 x34 >= 0 ;
-1 x843 +1 x57 >= 0 ;
+1 x843 -1 x34 -1 x57 >= -1 ;
-1 x831 +1 x33 >= 0 ;
-1 x831 +1 x58 >= 0 ;
+1 x831 -1 x33 -1 x58 >= -1 ;
-1 x819 +1 x32 >= 0 ;
-1 x819 +1 x59 >= 0 ;
+1 x819 -1 x32 -1 x59 >= -1 ;
-1 x807 +1 x31 >= 0 ;
-1 x807 +1 x60 >= 0 ;
+1 x807 -1 x31 -1 x60 >= -1 ;
-1 x795 +1 x30 >= 0 ;
-1 x795 +1 x61 >= 0 ;
+1 x795 -1 x30 -1 x61 >= -1 ;
-1 x783 +1 x29 >= 0 ;
-1 x783 +1 x62 >= 0 ;
+1 x783 -1 x29 -1 x62 >= -1 ;
-1 x771 +1 x28 >= 0 ;
-1 x771 +1 x63 >= 0 ;
+1 x771 -1 x28 -1 x63 >= -1 ;
-1 x759 +1 x27 >= 0 ;
-1 x759 +1 x64 >= 0 ;
+1 x759 -1 x27 -1 x64 >= -1 ;
-1 x287 +1 x51 >= 0 ;
-1 x287 +1 x80 >= 0 ;
+1 x287 -1 x51 -1 x80 >= -1 ;
-1 x274 +1 x50 >= 0 ;
-1 x274 +1 x81 >= 0 ;
+1 x274 -1 x50 -1 x81 >= -1 ;
-1 x261 +1 x49 >= 0 ;
-1 x261 +1 x82 >= 0 ;
+1 x261 -1 x49 -1 x82 >= -1 ;
-1 x248 +1 x48 >= 0 ;
-1 x248 +1 x83 >= 0 ;
+1 x248 -1 x48 -1 x83 >= -1 ;
-1 x235 +1 x47 >= 0 ;
-1 x235 +1 x84 >= 0 ;
+1 x235 -1 x47 -1 x84 >= -1 ;
-1 x222 +1 x46 >= 0 ;
-1 x222 +1 x85 >= 0 ;
+1 x222 -1 x46 -1 x85 >= -1 ;
-1 x209 +1 x45 >= 0 ;
-1 x209 +1 x86 >= 0 ;
+1 x209 -1 x45 -1 x86 >= -1 ;
-1 x196 +1 x44 >= 0 ;
-1 x196 +1 x87 >= 0 ;
+1 x196 -1 x44 -1 x87 >= -1 ;
-1 x183 +1 x43 >= 0 ;
-1 x183 +1 x88 >= 0 ;
+1 x183 -1 x43 -1 x88 >= -1 ;
-1 x170 +1 x42 >= 0 ;
-1 x170 +1 x89 >= 0 ;
+1 x170 -1 x42 -1 x89 >= -1 ;
-1 x157 +1 x41 >= 0 ;
-1 x157 +1 x90 >= 0 ;
+1 x157 -1 x41 -1 x90 >= -1 ;
-1 x144 +1 x40 >= 0 ;
-1 x144 +1 x91 >= 0 ;
+1 x144 -1 x40 -1 x91 >= -1 ;
-1 x892 +1 x38 >= 0 ;
-1 x892 +1 x54 >= 0 ;
+1 x892 -1 x38 -1 x54 >= -1 ;
-1 x880 +1 x37 >= 0 ;
-1 x880 +1 x55 >= 0 ;
+1 x880 -1 x37 -1 x55 >= -1 ;
-1 x868 +1 x36 >= 0 ;
-1 x868 +1 x56 >= 0 ;
+1 x868 -1 x36 -1 x56 >= -1 ;
-1 x856 +1 x35 >= 0 ;
-1 x856 +1 x57 >= 0 ;
+1 x856 -1 x35 -1 x57 >= -1 ;
-1 x844 +1 x34 >= 0 ;
-1 x844 +1 x58 >= 0 ;
+1 x844 -1 x34 -1 x58 >= -1 ;
-1 x832 +1 x33 >= 0 ;
-1 x832 +1 x59 >= 0 ;
+1 x832 -1 x33 -1 x59 >= -1 ;
-1 x820 +1 x32 >= 0 ;
-1 x820 +1 x60 >= 0 ;
+1 x820 -1 x32 -1 x60 >= -1 ;
-1 x808 +1 x31 >= 0 ;
-1 x808 +1 x61 >= 0 ;
+1 x808 -1 x31 -1 x61 >= -1 ;
-1 x796 +1 x30 >= 0 ;
-1 x796 +1 x62 >= 0 ;
+1 x796 -1 x30 -1 x62 >= -1 ;
-1 x784 +1 x29 >= 0 ;
-1 x784 +1 x63 >= 0 ;
+1 x784 -1 x29 -1 x63 >= -1 ;
-1 x772 +1 x28 >= 0 ;
-1 x772 +1 x64 >= 0 ;
+1 x772 -1 x28 -1 x64 >= -1 ;
-1 x760 +1 x27 >= 0 ;
-1 x760 +1 x65 >= 0 ;
+1 x760 -1 x27 -1 x65 >= -1 ;
-1 x301 +1 x52 >= 0 ;
-1 x301 +1 x80 >= 0 ;
+1 x301 -1 x52 -1 x80 >= -1 ;
-1 x288 +1 x51 >= 0 ;
-1 x288 +1 x81 >= 0 ;
+1 x288 -1 x51 -1 x81 >= -1 ;
-1 x275 +1 x50 >= 0 ;
-1 x275 +1 x82 >= 0 ;
+1 x275 -1 x50 -1 x82 >= -1 ;
-1 x262 +1 x49 >= 0 ;
-1 x262 +1 x83 >= 0 ;
+1 x262 -1 x49 -1 x83 >= -1 ;
-1 x249 +1 x48 >= 0 ;
-1 x249 +1 x84 >= 0 ;
+1 x249 -1 x48 -1 x84 >= -1 ;
-1 x236 +1 x47 >= 0 ;
-1 x236 +1 x85 >= 0 ;
+1 x236 -1 x47 -1 x85 >= -1 ;
-1 x223 +1 x46 >= 0 ;
-1 x223 +1 x86 >= 0 ;
+1 x223 -1 x46 -1 x86 >= -1 ;
-1 x210 +1 x45 >= 0 ;
-1 x210 +1 x87 >= 0 ;
+1 x210 -1 x45 -1 x87 >= -1 ;
-1 x197 +1 x44 >= 0 ;
-1 x197 +1 x88 >= 0 ;
+1 x197 -1 x44 -1 x88 >= -1 ;
-1 x184 +1 x43 >= 0 ;
-1 x184 +1 x89 >= 0 ;
+1 x184 -1 x43 -1 x89 >= -1 ;
-1 x171 +1 x42 >= 0 ;
-1 x171 +1 x90 >= 0 ;
+1 x171 -1 x42 -1 x90 >= -1 ;
-1 x158 +1 x41 >= 0 ;
-1 x158 +1 x91 >= 0 ;
+1 x158 -1 x41 -1 x91 >= -1 ;
-1 x145 +1 x40 >= 0 ;
-1 x145 +1 x92 >= 0 ;
+1 x145 -1 x40 -1 x92 >= -1 ;
-1 x905 +1 x39 >= 0 ;
-1 x905 +1 x54 >= 0 ;
+1 x905 -1 x39 -1 x54 >= -1 ;
-1 x893 +1 x38 >= 0 ;
-1 x893 +1 x55 >= 0 ;
+1 x893 -1 x38 -1 x55 >= -1 ;
-1 x881 +1 x37 >= 0 ;
-1 x881 +1 x56 >= 0 ;
+1 x881 -1 x37 -1 x56 >= -1 ;
-1 x869 +1 x36 >= 0 ;
-1 x869 +1 x57 >= 0 ;
+1 x869 -1 x36 -1 x57 >= -1 ;
-1 x857 +1 x35 >= 0 ;
-1 x857 +1 x58 >= 0 ;
+1 x857 -1 x35 -1 x58 >= -1 ;
-1 x845 +1 x34 >= 0 ;
-1 x845 +1 x59 >= 0 ;
+1 x845 -1 x34 -1 x59 >= -1 ;
-1 x833 +1 x33 >= 0 ;
-1 x833 +1 x60 >= 0 ;
+1 x833 -1 x33 -1 x60 >= -1 ;
-1 x821 +1 x32 >= 0 ;
-1 x821 +1 x61 >= 0 ;
+1 x821 -1 x32 -1 x61 >= -1 ;
-1 x809 +1 x31 >= 0 ;
-1 x809 +1 x62 >= 0 ;
+1 x809 -1 x31 -1 x62 >= -1 ;
-1 x797 +1 x30 >= 0 ;
-1 x797 +1 x63 >= 0 ;
+1 x797 -1 x30 -1 x63 >= -1 ;
-1 x785 +1 x29 >= 0 ;
-1 x785 +1 x64 >= 0 ;
+1 x785 -1 x29 -1 x64 >= -1 ;
-1 x773 +1 x28 >= 0 ;
-1 x773 +1 x65 >= 0 ;
+1 x773 -1 x28 -1 x65 >= -1 ;
-1 x761 +1 x27 >= 0 ;
-1 x761 +1 x66 >= 0 ;
+1 x761 -1 x27 -1 x66 >= -1 ;
-1 x315 +1 x53 >= 0 ;
-1 x315 +1 x80 >= 0 ;
+1 x315 -1 x53 -1 x80 >= -1 ;
-1 x302 +1 x52 >= 0 ;
-1 x302 +1 x81 >= 0 ;
+1 x302 -1 x52 -1 x81 >= -1 ;
-1 x289 +1 x51 >= 0 ;
-1 x289 +1 x82 >= 0 ;
+1 x289 -1 x51 -1 x82 >= -1 ;
-1 x276 +1 x50 >= 0 ;
-1 x276 +1 x83 >= 0 ;
+1 x276 -1 x50 -1 x83 >= -1 ;
-1 x263 +1 x49 >= 0 ;
-1 x263 +1 x84 >= 0 ;
+1 x263 -1 x49 -1 x84 >= -1 ;
-1 x250 +1 x48 >= 0 ;
-1 x250 +1 x85 >= 0 ;
+1 x250 -1 x48 -1 x85 >= -1 ;
-1 x237 +1 x47 >= 0 ;
-1 x237 +1 x86 >= 0 ;
+1 x237 -1 x47 -1 x86 >= -1 ;
-1 x224 +1 x46 >= 0 ;
-1 x224 +1 x87 >= 0 ;
+1 x224 -1 x46 -1 x87 >= -1 ;
-1 x211 +1 x45 >= 0 ;
-1 x211 +1 x88 >= 0 ;
+1 x211 -1 x45 -1 x88 >= -1 ;
-1 x198 +1 x44 >= 0 ;
-1 x198 +1 x89 >= 0 ;
+1 x198 -1 x44 -1 x89 >= -1 ;
-1 x185 +1 x43 >= 0 ;
-1 x185 +1 x90 >= 0 ;
+1 x185 -1 x43 -1 x90 >= -1 ;
-1 x172 +1 x42 >= 0 ;
-1 x172 +1 x91 >= 0 ;
+1 x172 -1 x42 -1 x91 >= -1 ;
-1 x159 +1 x41 >= 0 ;
-1 x159 +1 x92 >= 0 ;
+1 x159 -1 x41 -1 x92 >= -1 ;
-1 x146 +1 x40 >= 0 ;
-1 x146 +1 x93 >= 0 ;
+1 x146 -1 x40 -1 x93 >= -1 ;
-1 x906 +1 x39 >= 0 ;
-1 x906 +1 x55 >= 0 ;
+1 x906 -1 x39 -1 x55 >= -1 ;
-1 x894 +1 x38 >= 0 ;
-1 x894 +1 x56 >= 0 ;
+1 x894 -1 x38 -1 x56 >= -1 ;
-1 x882 +1 x37 >= 0 ;
-1 x882 +1 x57 >= 0 ;
+1 x882 -1 x37 -1 x57 >= -1 ;
-1 x870 +1 x36 >= 0 ;
-1 x870 +1 x58 >= 0 ;
+1 x870 -1 x36 -1 x58 >= -1 ;
-1 x858 +1 x35 >= 0 ;
-1 x858 +1 x59 >= 0 ;
+1 x858 -1 x35 -1 x59 >= -1 ;
-1 x846 +1 x34 >= 0 ;
-1 x846 +1 x60 >= 0 ;
+1 x846 -1 x34 -1 x60 >= -1 ;
-1 x834 +1 x33 >= 0 ;
-1 x834 +1 x61 >= 0 ;
+1 x834 -1 x33 -1 x61 >= -1 ;
-1 x822 +1 x32 >= 0 ;
-1 x822 +1 x62 >= 0 ;
+1 x822 -1 x32 -1 x62 >= -1 ;
-1 x810 +1 x31 >= 0 ;
-1 x810 +1 x63 >= 0 ;
+1 x810 -1 x31 -1 x63 >= -1 ;
-1 x798 +1 x30 >= 0 ;
-1 x798 +1 x64 >= 0 ;
+1 x798 -1 x30 -1 x64 >= -1 ;
-1 x786 +1 x29 >= 0 ;
-1 x786 +1 x65 >= 0 ;
+1 x786 -1 x29 -1 x65 >= -1 ;
-1 x774 +1 x28 >= 0 ;
-1 x774 +1 x66 >= 0 ;
+1 x774 -1 x28 -1 x66 >= -1 ;
-1 x316 +1 x53 >= 0 ;
-1 x316 +1 x81 >= 0 ;
+1 x316 -1 x53 -1 x81 >= -1 ;
-1 x303 +1 x52 >= 0 ;
-1 x303 +1 x82 >= 0 ;
+1 x303 -1 x52 -1 x82 >= -1 ;
-1 x290 +1 x51 >= 0 ;
-1 x290 +1 x83 >= 0 ;
+1 x290 -1 x51 -1 x83 >= -1 ;
-1 x277 +1 x50 >= 0 ;
-1 x277 +1 x84 >= 0 ;
+1 x277 -1 x50 -1 x84 >= -1 ;
-1 x264 +1 x49 >= 0 ;
-1 x264 +1 x85 >= 0 ;
+1 x264 -1 x49 -1 x85 >= -1 ;
-1 x251 +1 x48 >= 0 ;
-1 x251 +1 x86 >= 0 ;
+1 x251 -1 x48 -1 x86 >= -1 ;
-1 x238 +1 x47 >= 0 ;
-1 x238 +1 x87 >= 0 ;
+1 x238 -1 x47 -1 x87 >= -1 ;
-1 x225 +1 x46 >= 0 ;
-1 x225 +1 x88 >= 0 ;
+1 x225 -1 x46 -1 x88 >= -1 ;
-1 x212 +1 x45 >= 0 ;
-1 x212 +1 x89 >= 0 ;
+1 x212 -1 x45 -1 x89 >= -1 ;
-1 x199 +1 x44 >= 0 ;
-1 x199 +1 x90 >= 0 ;
+1 x199 -1 x44 -1 x90 >= -1 ;
-1 x186 +1 x43 >= 0 ;
-1 x186 +1 x91 >= 0 ;
+1 x186 -1 x43 -1 x91 >= -1 ;
-1 x173 +1 x42 >= 0 ;
-1 x173 +1 x92 >= 0 ;
+1 x173 -1 x42 -1 x92 >= -1 ;
-1 x160 +1 x41 >= 0 ;
-1 x160 +1 x93 >= 0 ;
+1 x160 -1 x41 -1 x93 >= -1 ;
-1 x907 +1 x39 >= 0 ;
-1 x907 +1 x56 >= 0 ;
+1 x907 -1 x39 -1 x56 >= -1 ;
-1 x895 +1 x38 >= 0 ;
-1 x895 +1 x57 >= 0 ;
+1 x895 -1 x38 -1 x57 >= -1 ;
-1 x883 +1 x37 >= 0 ;
-1 x883 +1 x58 >= 0 ;
+1 x883 -1 x37 -1 x58 >= -1 ;
-1 x871 +1 x36 >= 0 ;
-1 x871 +1 x59 >= 0 ;
+1 x871 -1 x36 -1 x59 >= -1 ;
-1 x859 +1 x35 >= 0 ;
-1 x859 +1 x60 >= 0 ;
+1 x859 -1 x35 -1 x60 >= -1 ;
-1 x847 +1 x34 >= 0 ;
-1 x847 +1 x61 >= 0 ;
+1 x847 -1 x34 -1 x61 >= -1 ;
-1 x835 +1 x33 >= 0 ;
-1 x835 +1 x62 >= 0 ;
+1 x835 -1 x33 -1 x62 >= -1 ;
-1 x823 +1 x32 >= 0 ;
-1 x823 +1 x63 >= 0 ;
+1 x823 -1 x32 -1 x63 >= -1 ;
-1 x811 +1 x31 >= 0 ;
-1 x811 +1 x64 >= 0 ;
+1 x811 -1 x31 -1 x64 >= -1 ;
-1 x799 +1 x30 >= 0 ;
-1 x799 +1 x65 >= 0 ;
+1 x799 -1 x30 -1 x65 >= -1 ;
-1 x787 +1 x29 >= 0 ;
-1 x787 +1 x66 >= 0 ;
+1 x787 -1 x29 -1 x66 >= -1 ;
-1 x317 +1 x53 >= 0 ;
-1 x317 +1 x82 >= 0 ;
+1 x317 -1 x53 -1 x82 >= -1 ;
-1 x304 +1 x52 >= 0 ;
-1 x304 +1 x83 >= 0 ;
+1 x304 -1 x52 -1 x83 >= -1 ;
-1 x291 +1 x51 >= 0 ;
-1 x291 +1 x84 >= 0 ;
+1 x291 -1 x51 -1 x84 >= -1 ;
-1 x278 +1 x50 >= 0 ;
-1 x278 +1 x85 >= 0 ;
+1 x278 -1 x50 -1 x85 >= -1 ;
-1 x265 +1 x49 >= 0 ;
-1 x265 +1 x86 >= 0 ;
+1 x265 -1 x49 -1 x86 >= -1 ;
-1 x252 +1 x48 >= 0 ;
-1 x252 +1 x87 >= 0 ;
+1 x252 -1 x48 -1 x87 >= -1 ;
-1 x239 +1 x47 >= 0 ;
-1 x239 +1 x88 >= 0 ;
+1 x239 -1 x47 -1 x88 >= -1 ;
-1 x226 +1 x46 >= 0 ;
-1 x226 +1 x89 >= 0 ;
+1 x226 -1 x46 -1 x89 >= -1 ;
-1 x213 +1 x45 >= 0 ;
-1 x213 +1 x90 >= 0 ;
+1 x213 -1 x45 -1 x90 >= -1 ;
-1 x200 +1 x44 >= 0 ;
-1 x200 +1 x91 >= 0 ;
+1 x200 -1 x44 -1 x91 >= -1 ;
-1 x187 +1 x43 >= 0 ;
-1 x187 +1 x92 >= 0 ;
+1 x187 -1 x43 -1 x92 >= -1 ;
-1 x174 +1 x42 >= 0 ;
-1 x174 +1 x93 >= 0 ;
+1 x174 -1 x42 -1 x93 >= -1 ;
-1 x908 +1 x39 >= 0 ;
-1 x908 +1 x57 >= 0 ;
+1 x908 -1 x39 -1 x57 >= -1 ;
-1 x896 +1 x38 >= 0 ;
-1 x896 +1 x58 >= 0 ;
+1 x896 -1 x38 -1 x58 >= -1 ;
-1 x884 +1 x37 >= 0 ;
-1 x884 +1 x59 >= 0 ;
+1 x884 -1 x37 -1 x59 >= -1 ;
-1 x872 +1 x36 >= 0 ;
-1 x872 +1 x60 >= 0 ;
+1 x872 -1 x36 -1 x60 >= -1 ;
-1 x860 +1 x35 >= 0 ;
-1 x860 +1 x61 >= 0 ;
+1 x860 -1 x35 -1 x61 >= -1 ;
-1 x848 +1 x34 >= 0 ;
-1 x848 +1 x62 >= 0 ;
+1 x848 -1 x34 -1 x62 >= -1 ;
-1 x836 +1 x33 >= 0 ;
-1 x836 +1 x63 >= 0 ;
+1 x836 -1 x33 -1 x63 >= -1 ;
-1 x824 +1 x32 >= 0 ;
-1 x824 +1 x64 >= 0 ;
+1 x824 -1 x32 -1 x64 >= -1 ;
-1 x812 +1 x31 >= 0 ;
-1 x812 +1 x65 >= 0 ;
+1 x812 -1 x31 -1 x65 >= -1 ;
-1 x800 +1 x30 >= 0 ;
-1 x800 +1 x66 >= 0 ;
+1 x800 -1 x30 -1 x66 >= -1 ;
-1 x318 +1 x53 >= 0 ;
-1 x318 +1 x83 >= 0 ;
+1 x318 -1 x53 -1 x83 >= -1 ;
-1 x305 +1 x52 >= 0 ;
-1 x305 +1 x84 >= 0 ;
+1 x305 -1 x52 -1 x84 >= -1 ;
-1 x292 +1 x51 >= 0 ;
-1 x292 +1 x85 >= 0 ;
+1 x292 -1 x51 -1 x85 >= -1 ;
-1 x279 +1 x50 >= 0 ;
-1 x279 +1 x86 >= 0 ;
+1 x279 -1 x50 -1 x86 >= -1 ;
-1 x266 +1 x49 >= 0 ;
-1 x266 +1 x87 >= 0 ;
+1 x266 -1 x49 -1 x87 >= -1 ;
-1 x253 +1 x48 >= 0 ;
-1 x253 +1 x88 >= 0 ;
+1 x253 -1 x48 -1 x88 >= -1 ;
-1 x240 +1 x47 >= 0 ;
-1 x240 +1 x89 >= 0 ;
+1 x240 -1 x47 -1 x89 >= -1 ;
-1 x227 +1 x46 >= 0 ;
-1 x227 +1 x90 >= 0 ;
+1 x227 -1 x46 -1 x90 >= -1 ;
-1 x214 +1 x45 >= 0 ;
-1 x214 +1 x91 >= 0 ;
+1 x214 -1 x45 -1 x91 >= -1 ;
-1 x201 +1 x44 >= 0 ;
-1 x201 +1 x92 >= 0 ;
+1 x201 -1 x44 -1 x92 >= -1 ;
-1 x188 +1 x43 >= 0 ;
-1 x188 +1 x93 >= 0 ;
+1 x188 -1 x43 -1 x93 >= -1 ;
-1 x909 +1 x39 >= 0 ;
-1 x909 +1 x58 >= 0 ;
+1 x909 -1 x39 -1 x58 >= -1 ;
-1 x897 +1 x38 >= 0 ;
-1 x897 +1 x59 >= 0 ;
+1 x897 -1 x38 -1 x59 >= -1 ;
-1 x885 +1 x37 >= 0 ;
-1 x885 +1 x60 >= 0 ;
+1 x885 -1 x37 -1 x60 >= -1 ;
-1 x873 +1 x36 >= 0 ;
-1 x873 +1 x61 >= 0 ;
+1 x873 -1 x36 -1 x61 >= -1 ;
-1 x861 +1 x35 >= 0 ;
-1 x861 +1 x62 >= 0 ;
+1 x861 -1 x35 -1 x62 >= -1 ;
-1 x849 +1 x34 >= 0 ;
-1 x849 +1 x63 >= 0 ;
+1 x849 -1 x34 -1 x63 >= -1 ;
-1 x837 +1 x33 >= 0 ;
-1 x837 +1 x64 >= 0 ;
+1 x837 -1 x33 -1 x64 >= -1 ;
-1 x825 +1 x32 >= 0 ;
-1 x825 +1 x65 >= 0 ;
+1 x825 -1 x32 -1 x65 >= -1 ;
-1 x813 +1 x31 >= 0 ;
-1 x813 +1 x66 >= 0 ;
+1 x813 -1 x31 -1 x66 >= -1 ;
-1 x319 +1 x53 >= 0 ;
-1 x319 +1 x84 >= 0 ;
+1 x319 -1 x53 -1 x84 >= -1 ;
-1 x306 +1 x52 >= 0 ;
-1 x306 +1 x85 >= 0 ;
+1 x306 -1 x52 -1 x85 >= -1 ;
-1 x293 +1 x51 >= 0 ;
-1 x293 +1 x86 >= 0 ;
+1 x293 -1 x51 -1 x86 >= -1 ;
-1 x280 +1 x50 >= 0 ;
-1 x280 +1 x87 >= 0 ;
+1 x280 -1 x50 -1 x87 >= -1 ;
-1 x267 +1 x49 >= 0 ;
-1 x267 +1 x88 >= 0 ;
+1 x267 -1 x49 -1 x88 >= -1 ;
-1 x254 +1 x48 >= 0 ;
-1 x254 +1 x89 >= 0 ;
+1 x254 -1 x48 -1 x89 >= -1 ;
-1 x241 +1 x47 >= 0 ;
-1 x241 +1 x90 >= 0 ;
+1 x241 -1 x47 -1 x90 >= -1 ;
-1 x228 +1 x46 >= 0 ;
-1 x228 +1 x91 >= 0 ;
+1 x228 -1 x46 -1 x91 >= -1 ;
-1 x215 +1 x45 >= 0 ;
-1 x215 +1 x92 >= 0 ;
+1 x215 -1 x45 -1 x92 >= -1 ;
-1 x202 +1 x44 >= 0 ;
-1 x202 +1 x93 >= 0 ;
+1 x202 -1 x44 -1 x93 >= -1 ;
-1 x910 +1 x39 >= 0 ;
-1 x910 +1 x59 >= 0 ;
+1 x910 -1 x39 -1 x59 >= -1 ;
-1 x898 +1 x38 >= 0 ;
-1 x898 +1 x60 >= 0 ;
+1 x898 -1 x38 -1 x60 >= -1 ;
-1 x886 +1 x37 >= 0 ;
-1 x886 +1 x61 >= 0 ;
+1 x886 -1 x37 -1 x61 >= -1 ;
-1 x874 +1 x36 >= 0 ;
-1 x874 +1 x62 >= 0 ;
+1 x874 -1 x36 -1 x62 >= -1 ;
-1 x862 +1 x35 >= 0 ;
-1 x862 +1 x63 >= 0 ;
+1 x862 -1 x35 -1 x63 >= -1 ;
-1 x850 +1 x34 >= 0 ;
-1 x850 +1 x64 >= 0 ;
+1 x850 -1 x34 -1 x64 >= -1 ;
-1 x838 +1 x33 >= 0 ;
-1 x838 +1 x65 >= 0 ;
+1 x838 -1 x33 -1 x65 >= -1 ;
-1 x826 +1 x32 >= 0 ;
-1 x826 +1 x66 >= 0 ;
+1 x826 -1 x32 -1 x66 >= -1 ;
-1 x320 +1 x53 >= 0 ;
-1 x320 +1 x85 >= 0 ;
+1 x320 -1 x53 -1 x85 >= -1 ;
-1 x307 +1 x52 >= 0 ;
-1 x307 +1 x86 >= 0 ;
+1 x307 -1 x52 -1 x86 >= -1 ;
-1 x294 +1 x51 >= 0 ;
-1 x294 +1 x87 >= 0 ;
+1 x294 -1 x51 -1 x87 >= -1 ;
-1 x281 +1 x50 >= 0 ;
-1 x281 +1 x88 >= 0 ;
+1 x281 -1 x50 -1 x88 >= -1 ;
-1 x268 +1 x49 >= 0 ;
-1 x268 +1 x89 >= 0 ;
+1 x268 -1 x49 -1 x89 >= -1 ;
-1 x255 +1 x48 >= 0 ;
-1 x255 +1 x90 >= 0 ;
+1 x255 -1 x48 -1 x90 >= -1 ;
-1 x242 +1 x47 >= 0 ;
-1 x242 +1 x91 >= 0 ;
+1 x242 -1 x47 -1 x91 >= -1 ;
-1 x229 +1 x46 >= 0 ;
-1 x229 +1 x92 >= 0 ;
+1 x229 -1 x46 -1 x92 >= -1 ;
-1 x216 +1 x45 >= 0 ;
-1 x216 +1 x93 >= 0 ;
+1 x216 -1 x45 -1 x93 >= -1 ;
-1 x911 +1 x39 >= 0 ;
-1 x911 +1 x60 >= 0 ;
+1 x911 -1 x39 -1 x60 >= -1 ;
-1 x899 +1 x38 >= 0 ;
-1 x899 +1 x61 >= 0 ;
+1 x899 -1 x38 -1 x61 >= -1 ;
-1 x887 +1 x37 >= 0 ;
-1 x887 +1 x62 >= 0 ;
+1 x887 -1 x37 -1 x62 >= -1 ;
-1 x875 +1 x36 >= 0 ;
-1 x875 +1 x63 >= 0 ;
+1 x875 -1 x36 -1 x63 >= -1 ;
-1 x863 +1 x35 >= 0 ;
-1 x863 +1 x64 >= 0 ;
+1 x863 -1 x35 -1 x64 >= -1 ;
-1 x851 +1 x34 >= 0 ;
-1 x851 +1 x65 >= 0 ;
+1 x851 -1 x34 -1 x65 >= -1 ;
-1 x839 +1 x33 >= 0 ;
-1 x839 +1 x66 >= 0 ;
+1 x839 -1 x33 -1 x66 >= -1 ;
-1 x321 +1 x53 >= 0 ;
-1 x321 +1 x86 >= 0 ;
+1 x321 -1 x53 -1 x86 >= -1 ;
-1 x308 +1 x52 >= 0 ;
-1 x308 +1 x87 >= 0 ;
+1 x308 -1 x52 -1 x87 >= -1 ;
-1 x295 +1 x51 >= 0 ;
-1 x295 +1 x88 >= 0 ;
+1 x295 -1 x51 -1 x88 >= -1 ;
-1 x282 +1 x50 >= 0 ;
-1 x282 +1 x89 >= 0 ;
+1 x282 -1 x50 -1 x89 >= -1 ;
-1 x269 +1 x49 >= 0 ;
-1 x269 +1 x90 >= 0 ;
+1 x269 -1 x49 -1 x90 >= -1 ;
-1 x256 +1 x48 >= 0 ;
-1 x256 +1 x91 >= 0 ;
+1 x256 -1 x48 -1 x91 >= -1 ;
-1 x243 +1 x47 >= 0 ;
-1 x243 +1 x92 >= 0 ;
+1 x243 -1 x47 -1 x92 >= -1 ;
-1 x230 +1 x46 >= 0 ;
-1 x230 +1 x93 >= 0 ;
+1 x230 -1 x46 -1 x93 >= -1 ;
-1 x912 +1 x39 >= 0 ;
-1 x912 +1 x61 >= 0 ;
+1 x912 -1 x39 -1 x61 >= -1 ;
-1 x900 +1 x38 >= 0 ;
-1 x900 +1 x62 >= 0 ;
+1 x900 -1 x38 -1 x62 >= -1 ;
-1 x888 +1 x37 >= 0 ;
-1 x888 +1 x63 >= 0 ;
+1 x888 -1 x37 -1 x63 >= -1 ;
-1 x876 +1 x36 >= 0 ;
-1 x876 +1 x64 >= 0 ;
+1 x876 -1 x36 -1 x64 >= -1 ;
-1 x864 +1 x35 >= 0 ;
-1 x864 +1 x65 >= 0 ;
+1 x864 -1 x35 -1 x65 >= -1 ;
-1 x852 +1 x34 >= 0 ;
-1 x852 +1 x66 >= 0 ;
+1 x852 -1 x34 -1 x66 >= -1 ;
-1 x322 +1 x53 >= 0 ;
-1 x322 +1 x87 >= 0 ;
+1 x322 -1 x53 -1 x87 >= -1 ;
-1 x309 +1 x52 >= 0 ;
-1 x309 +1 x88 >= 0 ;
+1 x309 -1 x52 -1 x88 >= -1 ;
-1 x296 +1 x51 >= 0 ;
-1 x296 +1 x89 >= 0 ;
+1 x296 -1 x51 -1 x89 >= -1 ;
-1 x283 +1 x50 >= 0 ;
-1 x283 +1 x90 >= 0 ;
+1 x283 -1 x50 -1 x90 >= -1 ;
-1 x270 +1 x49 >= 0 ;
-1 x270 +1 x91 >= 0 ;
+1 x270 -1 x49 -1 x91 >= -1 ;
-1 x257 +1 x48 >= 0 ;
-1 x257 +1 x92 >= 0 ;
+1 x257 -1 x48 -1 x92 >= -1 ;
-1 x244 +1 x47 >= 0 ;
-1 x244 +1 x93 >= 0 ;
+1 x244 -1 x47 -1 x93 >= -1 ;
-1 x913 +1 x39 >= 0 ;
-1 x913 +1 x62 >= 0 ;
+1 x913 -1 x39 -1 x62 >= -1 ;
-1 x901 +1 x38 >= 0 ;
-1 x901 +1 x63 >= 0 ;
+1 x901 -1 x38 -1 x63 >= -1 ;
-1 x889 +1 x37 >= 0 ;
-1 x889 +1 x64 >= 0 ;
+1 x889 -1 x37 -1 x64 >= -1 ;
-1 x877 +1 x36 >= 0 ;
-1 x877 +1 x65 >= 0 ;
+1 x877 -1 x36 -1 x65 >= -1 ;
-1 x865 +1 x35 >= 0 ;
-1 x865 +1 x66 >= 0 ;
+1 x865 -1 x35 -1 x66 >= -1 ;
-1 x323 +1 x53 >= 0 ;
-1 x323 +1 x88 >= 0 ;
+1 x323 -1 x53 -1 x88 >= -1 ;
-1 x310 +1 x52 >= 0 ;
-1 x310 +1 x89 >= 0 ;
+1 x310 -1 x52 -1 x89 >= -1 ;
-1 x297 +1 x51 >= 0 ;
-1 x297 +1 x90 >= 0 ;
+1 x297 -1 x51 -1 x90 >= -1 ;
-1 x284 +1 x50 >= 0 ;
-1 x284 +1 x91 >= 0 ;
+1 x284 -1 x50 -1 x91 >= -1 ;
-1 x271 +1 x49 >= 0 ;
-1 x271 +1 x92 >= 0 ;
+1 x271 -1 x49 -1 x92 >= -1 ;
-1 x258 +1 x48 >= 0 ;
-1 x258 +1 x93 >= 0 ;
+1 x258 -1 x48 -1 x93 >= -1 ;
-1 x914 +1 x39 >= 0 ;
-1 x914 +1 x63 >= 0 ;
+1 x914 -1 x39 -1 x63 >= -1 ;
-1 x902 +1 x38 >= 0 ;
-1 x902 +1 x64 >= 0 ;
+1 x902 -1 x38 -1 x64 >= -1 ;
-1 x890 +1 x37 >= 0 ;
-1 x890 +1 x65 >= 0 ;
+1 x890 -1 x37 -1 x65 >= -1 ;
-1 x878 +1 x36 >= 0 ;
-1 x878 +1 x66 >= 0 ;
+1 x878 -1 x36 -1 x66 >= -1 ;
-1 x324 +1 x53 >= 0 ;
-1 x324 +1 x89 >= 0 ;
+1 x324 -1 x53 -1 x89 >= -1 ;
-1 x311 +1 x52 >= 0 ;
-1 x311 +1 x90 >= 0 ;
+1 x311 -1 x52 -1 x90 >= -1 ;
-1 x298 +1 x51 >= 0 ;
-1 x298 +1 x91 >= 0 ;
+1 x298 -1 x51 -1 x91 >= -1 ;
-1 x285 +1 x50 >= 0 ;
-1 x285 +1 x92 >= 0 ;
+1 x285 -1 x50 -1 x92 >= -1 ;
-1 x272 +1 x49 >= 0 ;
-1 x272 +1 x93 >= 0 ;
+1 x272 -1 x49 -1 x93 >= -1 ;
-1 x915 +1 x39 >= 0 ;
-1 x915 +1 x64 >= 0 ;
+1 x915 -1 x39 -1 x64 >= -1 ;
-1 x903 +1 x38 >= 0 ;
-1 x903 +1 x65 >= 0 ;
+1 x903 -1 x38 -1 x65 >= -1 ;
-1 x891 +1 x37 >= 0 ;
-1 x891 +1 x66 >= 0 ;
+1 x891 -1 x37 -1 x66 >= -1 ;
-1 x325 +1 x53 >= 0 ;
-1 x325 +1 x90 >= 0 ;
+1 x325 -1 x53 -1 x90 >= -1 ;
-1 x312 +1 x52 >= 0 ;
-1 x312 +1 x91 >= 0 ;
+1 x312 -1 x52 -1 x91 >= -1 ;
-1 x299 +1 x51 >= 0 ;
-1 x299 +1 x92 >= 0 ;
+1 x299 -1 x51 -1 x92 >= -1 ;
-1 x286 +1 x50 >= 0 ;
-1 x286 +1 x93 >= 0 ;
+1 x286 -1 x50 -1 x93 >= -1 ;
-1 x916 +1 x39 >= 0 ;
-1 x916 +1 x65 >= 0 ;
+1 x916 -1 x39 -1 x65 >= -1 ;
-1 x904 +1 x38 >= 0 ;
-1 x904 +1 x66 >= 0 ;
+1 x904 -1 x38 -1 x66 >= -1 ;
-1 x326 +1 x53 >= 0 ;
-1 x326 +1 x91 >= 0 ;
+1 x326 -1 x53 -1 x91 >= -1 ;
-1 x313 +1 x52 >= 0 ;
-1 x313 +1 x92 >= 0 ;
+1 x313 -1 x52 -1 x92 >= -1 ;
-1 x300 +1 x51 >= 0 ;
-1 x300 +1 x93 >= 0 ;
+1 x300 -1 x51 -1 x93 >= -1 ;
-1 x917 +1 x39 >= 0 ;
-1 x917 +1 x66 >= 0 ;
+1 x917 -1 x39 -1 x66 >= -1 ;
-1 x327 +1 x53 >= 0 ;
-1 x327 +1 x92 >= 0 ;
+1 x327 -1 x53 -1 x92 >= -1 ;
-1 x314 +1 x52 >= 0 ;
-1 x314 +1 x93 >= 0 ;
+1 x314 -1 x52 -1 x93 >= -1 ;
-1 x328 +1 x53 >= 0 ;
-1 x328 +1 x93 >= 0 ;
+1 x328 -1 x53 -1 x93 >= -1 ;
